; benchmark generated from python API
(set-info :status unknown)
(declare-fun strlen_72_64 () (_ BitVec 64))
(declare-fun args_0_8 () (_ BitVec 8))
(declare-fun strlen_75_64 () (_ BitVec 64))
(declare-fun args_1_8 () (_ BitVec 8))
(declare-fun sigaction_oldact_171_1216 () (_ BitVec 1216))
(declare-fun sigaction_oldact_176_1216 () (_ BitVec 1216))
(declare-fun sigaction_oldact_186_1216 () (_ BitVec 1216))
(declare-fun sigaction_oldact_202_1216 () (_ BitVec 1216))
(declare-fun sigaction_oldact_231_1216 () (_ BitVec 1216))
(declare-fun sigaction_oldact_295_1216 () (_ BitVec 1216))
(declare-fun sigaction_oldact_422_1216 () (_ BitVec 1216))
(declare-fun sigaction_oldact_681_1216 () (_ BitVec 1216))
(declare-fun sigaction_oldact_1157_1216 () (_ BitVec 1216))
(assert
 (let (($x351 (= (_ bv1 64) strlen_72_64)))
 (not $x351)))
(assert
 (let ((?x82 (bvadd (_ bv576460752303357824 64) strlen_72_64)))
 (let (($x69 (= (_ bv0 8) args_0_8)))
 (let ((?x46 (ite $x69 (_ bv576460752303357824 64) (_ bv576460752303357825 64))))
 (= ?x46 ?x82)))))
(assert
 (let (($x347 (= (_ bv0 8) args_1_8)))
 (let ((?x355 (ite $x347 (_ bv576460752303357826 64) (_ bv576460752303357827 64))))
 (let ((?x356 (bvsub ?x355 (_ bv576460752303357826 64))))
 (= ?x356 strlen_75_64)))))
(assert
 (let ((?x1831 ((_ extract 127 120) sigaction_oldact_171_1216)))
 (let ((?x2319 (bvand ?x1831 (_ bv4 8))))
 (and (distinct (_ bv0 8) ?x2319) true))))
(assert
 (let ((?x2276 ((_ extract 127 120) sigaction_oldact_176_1216)))
 (let ((?x2398 (bvand ?x2276 (_ bv4 8))))
 (= (_ bv0 8) ?x2398))))
(assert
 (let ((?x2788 ((_ extract 127 120) sigaction_oldact_186_1216)))
 (let ((?x2813 (bvand ?x2788 (_ bv4 8))))
 (and (distinct (_ bv0 8) ?x2813) true))))
(assert
 (let ((?x3794 ((_ extract 127 120) sigaction_oldact_202_1216)))
 (let ((?x3819 (bvand ?x3794 (_ bv4 8))))
 (= (_ bv0 8) ?x3819))))
(assert
 (let ((?x5680 ((_ extract 127 120) sigaction_oldact_231_1216)))
 (let ((?x5700 (bvand ?x5680 (_ bv4 8))))
 (and (distinct (_ bv0 8) ?x5700) true))))
(assert
 (let ((?x9928 ((_ extract 127 120) sigaction_oldact_295_1216)))
 (let ((?x9948 (bvand ?x9928 (_ bv4 8))))
 (and (distinct (_ bv0 8) ?x9948) true))))
(assert
 (let ((?x19735 ((_ extract 127 120) sigaction_oldact_422_1216)))
 (let ((?x19689 (bvand ?x19735 (_ bv4 8))))
 (and (distinct (_ bv0 8) ?x19689) true))))
(assert
 (let ((?x37707 ((_ extract 127 120) sigaction_oldact_681_1216)))
 (let ((?x37732 (bvand ?x37707 (_ bv4 8))))
 (= (_ bv0 8) ?x37732))))
(assert
 (let ((?x66661 ((_ extract 127 120) sigaction_oldact_1157_1216)))
 (let ((?x25383 (bvand ?x66661 (_ bv4 8))))
 (= (_ bv0 8) ?x25383))))
(maximize sigaction_oldact_681_1216)
(minimize sigaction_oldact_186_1216)
(minimize sigaction_oldact_231_1216)
(maximize sigaction_oldact_186_1216)
(maximize strlen_75_64)
(minimize sigaction_oldact_1157_1216)
(maximize strlen_72_64)
(minimize sigaction_oldact_681_1216)
(maximize sigaction_oldact_202_1216)
(minimize strlen_72_64)
(minimize strlen_75_64)
(minimize sigaction_oldact_176_1216)
(maximize sigaction_oldact_176_1216)
(maximize args_1_8)
(check-sat)
(get-objectives)
